53695
0 30 8318
30 24 299
24 10 545
10 44 436
44 51 722
51 14 631
14 45 658
45 35 402
35 38 503
38 15 451
15 9 734
9 21 117
21 28 544
28 20 516
20 22 176
22 52 388
52 16 938
16 47 415
47 18 897
18 43 1282
43 7 383
7 37 368
37 31 1020
31 40 362
40 4 714
4 34 323
34 23 296
23 49 868
49 19 763
19 36 714
36 6 517
6 39 1176
39 50 1042
50 12 644
12 42 790
42 2 1096
2 5 385
5 27 404
27 54 487
54 48 711
48 25 560
25 53 967
53 33 401
33 46 702
46 29 944
29 3 380
3 17 606
17 11 768
11 8 723
8 13 471
13 1 433
1 41 1722
41 32 4807
32 26 4053
26 0 4123
